WARNING: for repeatability, setting FPU to use double precision
============================[ Problem Statistics ]=============================
|                                                                             |
|  Number of variables:           100                                         |
|  Number of clauses:             449                                         |
|  Parse time:                   0.00 s                                       |
|  Eliminated clauses:           0.00 Mb                                      |
|  Simplification time:          0.00 s                                       |
|                                                                             |
============================[ Search Statistics ]==============================
| Conflicts |          ORIGINAL         |          LEARNT          | Progress |
|           |    Vars  Clauses Literals |    Limit  Clauses Lit/Cl |          |
===============================================================================
|       100 |      96      445     1364 |      163      100      6 |  0.010 % |
===============================================================================
restarts              : 2
conflicts             : 175            (58509 /sec)
decisions             : 215            (0.00 % random) (71882 /sec)
propagations          : 4017           (1343029 /sec)
conflict literals     : 991            (21.04 % deleted)
Memory used           : 13.00 MB
CPU time              : 0.002991 s

SATISFIABLE
